
Gurobi 6.5.2 (linux64) logging started Tue Sep  6 10:06:20 2016

Optimize a model with 101 rows, 418 columns and 905 nonzeros
Coefficient statistics:
  Matrix range    [1e+00, 2e+00]
  Objective range [1e+00, 1e+02]
  Bounds range    [1e+00, 1e+00]
  RHS range       [1e+00, 1e+00]
Presolve removed 33 rows and 10 columns
Presolve time: 0.00s
Presolved: 68 rows, 408 columns, 817 nonzeros
Variable types: 0 continuous, 408 integer (408 binary)
Found heuristic solution: objective 2625.0000000

Root relaxation: objective 6.480000e+02, 83 iterations, 0.00 seconds

    Nodes    |    Current Node    |     Objective Bounds      |     Work
 Expl Unexpl |  Obj  Depth IntInf | Incumbent    BestBd   Gap | It/Node Time

     0     0  648.00000    0   33 2625.00000  648.00000  75.3%     -    0s
H    0     0                    1139.0000000  648.00000  43.1%     -    0s
     0     0  689.75000    0   52 1139.00000  689.75000  39.4%     -    0s
H    0     0                    1106.0000000  689.75000  37.6%     -    0s
     0     0  717.37500    0   63 1106.00000  717.37500  35.1%     -    0s
     0     0  717.40000    0   64 1106.00000  717.40000  35.1%     -    0s
     0     0  720.50000    0   50 1106.00000  720.50000  34.9%     -    0s
     0     0  722.56061    0   31 1106.00000  722.56061  34.7%     -    0s
     0     0  722.84659    0   74 1106.00000  722.84659  34.6%     -    0s
     0     0  724.95465    0   71 1106.00000  724.95465  34.5%     -    0s
     0     0  724.95465    0   71 1106.00000  724.95465  34.5%     -    0s
H    0     0                     929.0000000  724.95465  22.0%     -    0s
     0     2  724.95465    0   69  929.00000  724.95465  22.0%     -    0s
H  124    70                     782.0000000  737.67347  5.67%   6.3    0s
*  270    87              22     775.0000000  737.67347  4.82%   5.6    0s
*  305    52              11     767.0000000  737.88235  3.80%   5.6    0s
*  395    57              13     763.0000000  738.33333  3.23%   5.7    0s
*  397    47              12     761.0000000  738.33333  2.98%   5.7    0s
*  442    44              13     760.0000000  738.33333  2.85%   5.8    0s
*  534    42              14     757.0000000  740.20000  2.22%   5.7    0s
*  657     2              12     752.0000000  742.00000  1.33%   5.9    0s
*  880     0               7     747.0000000  743.59649  0.46%   5.6    0s

Cutting planes:
  Gomory: 8
  Cover: 82
  MIR: 4
  Zero half: 2
  Lazy constraints: 58

Explored 916 nodes (5265 simplex iterations) in 0.18 seconds
Thread count was 8 (of 8 available processors)

Optimal solution found (tolerance 1.00e-04)
Best objective 7.470000000000e+02, best bound 7.470000000000e+02, gap 0.0%
